# Generated by ConicBenchmarkUtilities.jl
VER
2

OBJSENSE
MIN

VAR
358 1
F 358

INT
120
42
43
44
45
46
47
48
49
50
51
52
53
54
55
56
57
58
59
60
61
62
63
64
65
66
67
68
69
70
71
72
73
74
75
76
77
78
79
80
81
82
83
84
85
86
87
88
89
90
91
92
93
94
95
96
97
98
99
100
101
188
190
192
194
196
198
199
200
201
204
207
210
211
212
213
216
219
222
225
228
231
233
235
237
238
239
240
241
242
243
245
247
249
250
251
252
254
256
258
260
262
264
266
268
270
274
275
276
277
278
279
281
283
285
287
289
291
293
295
297

CON
1213 1129
L= 1
L= 1
L= 1
L= 1
L= 1
L= 1
L= 1
L= 1
L= 1
L= 1
L= 1
L= 1
L= 1
L= 1
L= 1
L= 1
L= 1
L= 1
L= 1
L= 1
L= 1
L= 1
L= 1
L= 1
L= 1
L= 1
L= 1
L= 1
L= 1
L= 1
L= 1
EXP 3
L+ 1
EXP 3
L+ 1
EXP 3
L+ 1
L+ 1
L+ 1
L+ 1
L+ 1
L+ 1
L+ 1
EXP 3
L+ 1
EXP 3
L+ 1
EXP 3
L+ 1
L+ 1
L+ 1
L+ 1
L+ 1
L+ 1
L+ 1
L+ 1
L+ 1
L+ 1
L+ 1
L+ 1
L+ 1
L+ 1
L+ 1
L+ 1
L+ 1
L+ 1
L+ 1
EXP 3
L+ 1
EXP 3
L+ 1
EXP 3
L+ 1
L+ 1
L+ 1
L+ 1
L+ 1
L+ 1
L+ 1
L+ 1
L+ 1
L+ 1
L+ 1
L+ 1
L+ 1
L+ 1
L+ 1
L+ 1
L+ 1
L+ 1
L+ 1
L+ 1
L+ 1
L+ 1
L+ 1
L+ 1
L+ 1
L+ 1
L+ 1
L+ 1
EXP 3
L+ 1
EXP 3
L+ 1
EXP 3
L+ 1
L+ 1
L+ 1
L+ 1
L+ 1
L+ 1
L+ 1
EXP 3
L+ 1
EXP 3
L+ 1
EXP 3
L+ 1
L+ 1
L+ 1
L+ 1
L+ 1
L+ 1
L+ 1
EXP 3
L+ 1
EXP 3
L+ 1
EXP 3
L+ 1
L+ 1
L+ 1
L+ 1
L+ 1
L+ 1
L+ 1
L+ 1
L+ 1
L+ 1
L+ 1
L+ 1
L+ 1
L+ 1
L+ 1
L+ 1
L+ 1
L+ 1
L+ 1
L+ 1
L+ 1
L+ 1
L+ 1
L+ 1
L+ 1
L+ 1
L+ 1
L+ 1
L+ 1
L+ 1
L+ 1
EXP 3
L+ 1
EXP 3
L+ 1
EXP 3
L+ 1
L+ 1
L+ 1
L+ 1
L+ 1
L+ 1
L+ 1
L+ 1
L+ 1
L+ 1
L+ 1
L+ 1
L+ 1
L+ 1
L+ 1
L+ 1
L+ 1
L+ 1
L+ 1
L+ 1
L+ 1
L+ 1
L+ 1
L+ 1
L+ 1
L+ 1
L+ 1
L+ 1
EXP 3
L+ 1
EXP 3
L+ 1
EXP 3
L+ 1
L+ 1
L+ 1
L+ 1
L+ 1
L+ 1
L+ 1
EXP 3
L+ 1
EXP 3
L+ 1
EXP 3
L+ 1
L+ 1
L+ 1
L+ 1
L+ 1
L+ 1
L+ 1
EXP 3
L+ 1
EXP 3
L+ 1
EXP 3
L+ 1
EXP 3
L+ 1
EXP 3
L+ 1
EXP 3
L+ 1
L+ 1
L+ 1
L+ 1
L+ 1
L+ 1
L+ 1
L+ 1
L+ 1
L+ 1
L+ 1
L+ 1
L+ 1
L+ 1
L+ 1
L+ 1
L+ 1
L+ 1
L+ 1
L+ 1
L+ 1
L+ 1
L+ 1
L+ 1
L+ 1
L+ 1
L+ 1
L+ 1
L+ 1
L+ 1
L+ 1
L+ 1
L+ 1
L+ 1
EXP 3
L+ 1
EXP 3
L+ 1
EXP 3
L+ 1
L+ 1
L+ 1
L+ 1
L+ 1
L+ 1
L+ 1
EXP 3
L+ 1
EXP 3
L+ 1
EXP 3
L+ 1
L+ 1
L+ 1
L+ 1
L+ 1
L+ 1
L+ 1
EXP 3
L+ 1
EXP 3
L+ 1
EXP 3
L+ 1
L+ 1
L+ 1
L+ 1
L+ 1
L+ 1
L+ 1
L+ 1
L+ 1
L+ 1
L+ 1
L+ 1
L+ 1
L+ 1
L+ 1
L+ 1
L+ 1
L+ 1
L+ 1
L+ 1
L+ 1
L+ 1
L+ 1
L+ 1
L+ 1
L+ 1
L+ 1
L+ 1
L+ 1
L+ 1
L+ 1
L+ 1
L+ 1
L+ 1
L+ 1
L+ 1
L+ 1
L+ 1
L+ 1
L+ 1
L+ 1
L+ 1
L+ 1
L+ 1
L+ 1
L+ 1
L+ 1
L+ 1
L+ 1
L+ 1
L+ 1
L+ 1
L+ 1
L+ 1
L+ 1
L+ 1
L+ 1
L+ 1
L+ 1
L+ 1
L+ 1
L+ 1
L+ 1
L+ 1
L+ 1
L+ 1
L+ 1
L+ 1
L+ 1
L+ 1
L+ 1
L+ 1
L+ 1
L+ 1
L+ 1
L+ 1
L+ 1
L+ 1
L+ 1
L+ 1
L+ 1
L+ 1
L+ 1
L+ 1
L+ 1
L+ 1
L+ 1
L+ 1
L+ 1
L+ 1
L+ 1
L+ 1
L+ 1
L+ 1
L+ 1
L+ 1
L+ 1
L+ 1
L+ 1
L+ 1
L+ 1
L+ 1
L+ 1
L+ 1
L+ 1
L+ 1
L+ 1
L+ 1
L+ 1
L+ 1
L+ 1
L+ 1
L+ 1
L+ 1
L+ 1
L+ 1
L+ 1
L+ 1
L+ 1
L+ 1
L+ 1
L+ 1
L+ 1
L+ 1
L+ 1
L+ 1
L+ 1
L+ 1
L+ 1
L+ 1
L+ 1
L+ 1
L+ 1
L+ 1
L+ 1
L+ 1
L+ 1
L+ 1
L+ 1
L+ 1
L+ 1
L+ 1
L+ 1
L+ 1
L+ 1
L+ 1
L+ 1
L+ 1
L+ 1
L+ 1
L+ 1
L+ 1
L+ 1
L+ 1
L+ 1
L+ 1
L+ 1
L+ 1
L+ 1
L+ 1
L+ 1
L+ 1
L+ 1
L+ 1
L+ 1
L+ 1
L+ 1
L+ 1
L+ 1
L+ 1
L+ 1
L+ 1
L+ 1
L+ 1
L+ 1
L+ 1
L+ 1
L+ 1
L+ 1
L+ 1
L+ 1
L+ 1
L+ 1
L+ 1
L+ 1
L+ 1
L+ 1
L+ 1
L+ 1
L+ 1
L+ 1
L+ 1
L+ 1
L+ 1
L+ 1
L+ 1
L+ 1
L+ 1
L+ 1
L+ 1
L+ 1
L+ 1
L+ 1
L+ 1
L+ 1
L+ 1
L+ 1
L+ 1
L+ 1
L+ 1
L+ 1
L+ 1
L+ 1
L+ 1
L+ 1
L+ 1
L+ 1
L+ 1
L+ 1
L+ 1
L+ 1
L+ 1
L+ 1
L+ 1
L+ 1
L+ 1
L+ 1
L+ 1
L+ 1
L+ 1
L+ 1
L+ 1
L+ 1
L+ 1
L+ 1
L+ 1
L+ 1
L+ 1
L+ 1
L+ 1
L+ 1
L+ 1
L+ 1
L+ 1
L+ 1
L+ 1
L+ 1
L+ 1
L+ 1
L+ 1
L+ 1
L+ 1
L+ 1
L+ 1
L+ 1
L+ 1
L+ 1
L+ 1
L+ 1
L+ 1
L+ 1
L+ 1
L+ 1
L+ 1
L+ 1
L+ 1
L+ 1
L+ 1
L+ 1
L+ 1
L+ 1
L+ 1
L+ 1
L+ 1
L+ 1
L+ 1
L+ 1
L+ 1
L+ 1
L+ 1
L+ 1
L+ 1
L+ 1
L+ 1
L+ 1
L+ 1
L+ 1
L+ 1
L+ 1
L+ 1
L+ 1
L+ 1
L+ 1
L+ 1
L+ 1
L+ 1
L+ 1
L+ 1
L+ 1
L+ 1
L+ 1
L+ 1
L+ 1
L+ 1
L+ 1
L+ 1
L+ 1
L+ 1
L+ 1
L+ 1
L+ 1
L+ 1
L+ 1
L+ 1
L+ 1
L+ 1
L+ 1
L+ 1
L+ 1
L+ 1
L+ 1
L+ 1
L+ 1
L+ 1
L+ 1
L+ 1
L+ 1
L+ 1
L+ 1
L+ 1
L+ 1
L+ 1
L+ 1
L+ 1
L+ 1
L+ 1
L+ 1
L+ 1
L+ 1
L+ 1
L+ 1
L+ 1
L+ 1
L+ 1
L+ 1
L+ 1
L+ 1
L+ 1
L+ 1
L+ 1
L+ 1
L+ 1
L+ 1
L+ 1
L+ 1
L+ 1
L+ 1
L+ 1
L+ 1
L+ 1
L+ 1
L+ 1
L+ 1
L+ 1
L+ 1
L+ 1
L+ 1
L= 1
L= 1
L= 1
L+ 1
L+ 1
L+ 1
L+ 1
L+ 1
L+ 1
L+ 1
L+ 1
L+ 1
L+ 1
L+ 1
L+ 1
L+ 1
L+ 1
L+ 1
L+ 1
L+ 1
L+ 1
L+ 1
L+ 1
L+ 1
L+ 1
L+ 1
L+ 1
L+ 1
L+ 1
L+ 1
L+ 1
L+ 1
L+ 1
L+ 1
L+ 1
L+ 1
L+ 1
L+ 1
L+ 1
L+ 1
L+ 1
L+ 1
L+ 1
L+ 1
L+ 1
L+ 1
L+ 1
L+ 1
L+ 1
L+ 1
L+ 1
L+ 1
L+ 1
L+ 1
L+ 1
L+ 1
L+ 1
L+ 1
L+ 1
L+ 1
L+ 1
L+ 1
L+ 1
L+ 1
L+ 1
L+ 1
L+ 1
L+ 1
L+ 1
L+ 1
L+ 1
L+ 1
L+ 1
L+ 1
L+ 1
L+ 1
L+ 1
L+ 1
L+ 1
L+ 1
L+ 1
L+ 1
L+ 1
L+ 1
L+ 1
L+ 1
L+ 1
L+ 1
L+ 1
L+ 1
L+ 1
L+ 1
L+ 1
L+ 1
L+ 1
L+ 1
L+ 1
L+ 1
L+ 1
L+ 1
L+ 1
L+ 1
L+ 1
L+ 1
L+ 1
L+ 1
L+ 1
L+ 1
L+ 1
L+ 1
L+ 1
L+ 1
L+ 1
L+ 1
L+ 1
L+ 1
L+ 1
L+ 1
L+ 1
L+ 1
L+ 1
L+ 1
L+ 1
L+ 1
L+ 1
L+ 1
L+ 1
L+ 1
L+ 1
L+ 1
L+ 1
L+ 1
L+ 1
L+ 1
L+ 1
L+ 1
L+ 1
L+ 1
L+ 1
L+ 1
L+ 1
L+ 1
L+ 1
L+ 1
L+ 1
L+ 1
L+ 1
L+ 1
L+ 1
L+ 1
L+ 1
L+ 1
L+ 1
L+ 1
L+ 1
L+ 1
L+ 1
L+ 1
L+ 1
L+ 1
L+ 1
L+ 1
L+ 1
L+ 1
L+ 1
L+ 1
L+ 1
L+ 1
L+ 1
L+ 1
L+ 1
L+ 1
L+ 1
L+ 1
L+ 1
L+ 1
L+ 1
L+ 1
L+ 1
L+ 1
L+ 1
L+ 1
L+ 1
L+ 1
L+ 1
L+ 1
L+ 1
L+ 1
L+ 1
L+ 1
L+ 1
L+ 1
L+ 1
L+ 1
L+ 1
L+ 1
L+ 1
L+ 1
L+ 1
L+ 1
L+ 1
L+ 1
L+ 1
L+ 1
L+ 1
L+ 1
L+ 1
L+ 1
L+ 1
L+ 1
L+ 1
L+ 1
L+ 1
L+ 1
L+ 1
L+ 1
L+ 1
L+ 1
L+ 1
L+ 1
L+ 1
L+ 1
L+ 1
L+ 1
L+ 1
L+ 1
L+ 1
L+ 1
L+ 1
L+ 1
L+ 1
L+ 1
L+ 1
L+ 1
L+ 1
L+ 1
L+ 1
L+ 1
L+ 1
L+ 1
L+ 1
L+ 1
L+ 1
L+ 1
L+ 1
L+ 1
L+ 1
L+ 1
L+ 1
L+ 1
L+ 1
L+ 1
L+ 1
L+ 1
L+ 1
L+ 1
L+ 1
L+ 1
L+ 1
L+ 1
L+ 1
L+ 1
L+ 1
L+ 1
L+ 1
L+ 1
L+ 1
L+ 1
L+ 1
L+ 1
L+ 1
L+ 1
L+ 1
L+ 1
L+ 1
L+ 1
L+ 1
L+ 1
L+ 1
L+ 1
L+ 1
L+ 1
L+ 1
L+ 1
L+ 1
L+ 1
L+ 1
L+ 1
L+ 1
L+ 1
L+ 1
L+ 1
L+ 1
L+ 1
L+ 1
L+ 1
L+ 1
L+ 1
L+ 1
L+ 1
L+ 1
L+ 1
L+ 1
L+ 1
L+ 1
L+ 1
L+ 1
L+ 1
L+ 1
L+ 1
L+ 1
L+ 1
L+ 1
L+ 1
L+ 1
L+ 1
L+ 1
L+ 1
L+ 1
L+ 1
L+ 1
L+ 1
L+ 1
L+ 1
L+ 1
L+ 1
L+ 1
L+ 1
L+ 1
L+ 1
L+ 1
L+ 1
L+ 1
L+ 1
L+ 1
L+ 1
L+ 1
L+ 1
L+ 1
L+ 1
L+ 1
L+ 1
L+ 1
L+ 1
L+ 1
L+ 1
L+ 1
L+ 1
L+ 1
L+ 1
L+ 1
L+ 1
L+ 1
L+ 1
L+ 1
L+ 1
L+ 1
L+ 1
L+ 1
L+ 1
L+ 1
L+ 1
L+ 1
L+ 1
L+ 1
L+ 1
L+ 1
L+ 1
L+ 1
L+ 1
L+ 1
L+ 1
L+ 1
L+ 1
L+ 1
L+ 1
L+ 1
L+ 1
L+ 1
L+ 1
L+ 1
L+ 1
L+ 1
L+ 1
L+ 1
L+ 1
L+ 1
L+ 1
L+ 1
L+ 1
L+ 1
L+ 1
L+ 1
L+ 1
L+ 1
L+ 1
L+ 1
L+ 1
L+ 1
L+ 1
L+ 1
L+ 1
L+ 1
L+ 1
L+ 1
L+ 1
L+ 1
L+ 1
L+ 1
L+ 1
L+ 1
L+ 1
L+ 1
L+ 1
L+ 1
L+ 1
L+ 1
L+ 1
L+ 1
L+ 1
L+ 1
L+ 1
L+ 1
L+ 1
L+ 1
L+ 1
L+ 1
L+ 1
L+ 1
L+ 1
L+ 1
L+ 1
L+ 1
L+ 1
L+ 1
L+ 1
L+ 1
L+ 1
L+ 1
L+ 1
L+ 1
L+ 1
L+ 1
L+ 1
L+ 1
L+ 1
L+ 1
L+ 1
L+ 1
L+ 1
L+ 1
L+ 1
L+ 1
L+ 1
L+ 1
L+ 1
L+ 1
L+ 1
L+ 1
L+ 1
L+ 1
L+ 1
L+ 1
L+ 1
L+ 1
L+ 1
L+ 1
L+ 1
L+ 1
L+ 1
L+ 1

OBJACOORD
1
102 -1.0

ACOORD
2197
0 0 -1.0
1 0 1.0
826 0 1.0
827 0 -1.0
0 1 -1.0
2 1 1.0
828 1 1.0
829 1 -1.0
0 2 -1.0
3 2 1.0
830 2 1.0
831 2 -1.0
0 3 5.0
7 3 -1.0
847 3 1.0
0 4 10.0
8 4 -1.0
848 4 1.0
0 5 5.0
9 5 -1.0
849 5 1.0
0 6 -2.0
103 6 0.5
106 6 -0.5
112 6 -1.0
862 6 1.0
863 6 -1.0
0 7 -1.0
104 7 0.5
107 7 -0.5
113 7 -1.0
864 7 1.0
865 7 -1.0
0 8 -2.0
105 8 0.5
108 8 -0.5
114 8 -1.0
866 8 1.0
867 8 -1.0
0 9 -10.0
220 9 1.0
223 9 -1.0
229 9 -1.0
916 9 1.0
917 9 -1.0
0 10 -5.0
221 10 1.0
224 10 -1.0
230 10 -1.0
918 10 1.0
919 10 -1.0
0 11 -5.0
222 11 1.0
225 11 -1.0
231 11 -1.0
920 11 1.0
921 11 -1.0
0 12 -5.0
22 12 -1.0
922 12 1.0
923 12 -1.0
0 13 -5.0
23 13 -1.0
924 13 1.0
925 13 -1.0
0 14 -5.0
24 14 -1.0
926 14 1.0
927 14 -1.0
0 15 80.0
214 15 -1.0
217 15 1.0
220 15 -1.0
223 15 1.0
232 15 -1.0
946 15 1.0
0 16 130.0
215 16 -1.0
218 16 1.0
221 16 -1.0
224 16 1.0
233 16 -1.0
947 16 1.0
0 17 215.0
216 17 -1.0
219 17 1.0
222 17 -1.0
225 17 1.0
234 17 -1.0
948 17 1.0
0 18 110.0
238 18 -1.0
250 18 -1.0
949 18 1.0
0 19 120.0
242 19 -1.0
251 19 -1.0
950 19 1.0
0 20 125.0
246 20 -1.0
252 20 -1.0
951 20 1.0
0 21 110.0
256 21 -1.0
268 21 -1.0
952 21 1.0
0 22 130.0
260 22 -1.0
269 22 -1.0
953 22 1.0
0 23 140.0
264 23 -1.0
270 23 -1.0
954 23 1.0
0 24 80.0
274 24 -1.0
286 24 -1.0
301 24 -1.0
955 24 1.0
0 25 90.0
278 25 -1.0
290 25 -1.0
302 25 -1.0
956 25 1.0
0 26 120.0
282 26 -1.0
294 26 -1.0
303 26 -1.0
957 26 1.0
0 27 285.0
304 27 -1.0
307 27 1.0
313 27 -1.0
958 27 1.0
0 28 390.0
305 28 -1.0
308 28 1.0
314 28 -1.0
959 28 1.0
0 29 350.0
306 29 -1.0
309 29 1.0
315 29 -1.0
960 29 1.0
0 30 290.0
316 30 -1.0
319 30 1.0
325 30 -1.0
961 30 1.0
0 31 405.0
317 31 -1.0
320 31 1.0
326 31 -1.0
962 31 1.0
0 32 190.0
318 32 -1.0
321 32 1.0
327 32 -1.0
963 32 1.0
0 33 280.0
331 33 -1.0
343 33 -1.0
964 33 1.0
0 34 400.0
335 34 -1.0
344 34 -1.0
965 34 1.0
0 35 430.0
339 35 -1.0
345 35 -1.0
966 35 1.0
0 36 290.0
349 36 -1.0
361 36 -1.0
967 36 1.0
0 37 300.0
353 37 -1.0
362 37 -1.0
968 37 1.0
0 38 240.0
357 38 -1.0
363 38 -1.0
969 38 1.0
0 39 350.0
367 39 -1.0
379 39 -1.0
970 39 1.0
0 40 250.0
371 40 -1.0
380 40 -1.0
971 40 1.0
0 41 300.0
375 41 -1.0
381 41 -1.0
972 41 1.0
0 42 -5.0
382 42 -5.0
442 42 5.0
562 42 -1.0
563 42 -1.0
564 42 -1.0
566 42 -1.0
682 42 1.0
1093 42 1.0
1094 42 -1.0
0 43 -4.0
383 43 -4.0
443 43 4.0
562 43 -1.0
564 43 -1.0
565 43 -1.0
567 43 -1.0
683 43 1.0
1095 43 1.0
1096 43 -1.0
0 44 -6.0
384 44 -6.0
444 44 6.0
563 44 -1.0
565 44 -1.0
566 44 -1.0
567 44 -1.0
684 44 1.0
1097 44 1.0
1098 44 -1.0
0 45 -8.0
385 45 -8.0
445 45 8.0
568 45 -1.0
569 45 -1.0
570 45 -1.0
572 45 -1.0
685 45 1.0
1099 45 1.0
1100 45 -1.0
0 46 -7.0
386 46 -7.0
446 46 7.0
568 46 -1.0
570 46 -1.0
571 46 -1.0
573 46 -1.0
686 46 1.0
1101 46 1.0
1102 46 -1.0
0 47 -6.0
387 47 -6.0
447 47 6.0
569 47 -1.0
571 47 -1.0
572 47 -1.0
573 47 -1.0
687 47 1.0
1103 47 1.0
1104 47 -1.0
0 48 -6.0
388 48 -6.0
448 48 6.0
574 48 -1.0
575 48 -1.0
576 48 -1.0
578 48 -1.0
688 48 1.0
1105 48 1.0
1106 48 -1.0
0 49 -9.0
389 49 -9.0
449 49 9.0
574 49 -1.0
576 49 -1.0
577 49 -1.0
579 49 -1.0
689 49 1.0
1107 49 1.0
1108 49 -1.0
0 50 -4.0
390 50 -4.0
450 50 4.0
575 50 -1.0
577 50 -1.0
578 50 -1.0
579 50 -1.0
690 50 1.0
1109 50 1.0
1110 50 -1.0
0 51 -10.0
391 51 -10.0
451 51 10.0
580 51 -1.0
581 51 -1.0
582 51 -1.0
584 51 -1.0
691 51 1.0
1111 51 1.0
1112 51 -1.0
0 52 -9.0
392 52 -9.0
452 52 9.0
580 52 -1.0
582 52 -1.0
583 52 -1.0
585 52 -1.0
692 52 1.0
1113 52 1.0
1114 52 -1.0
0 53 -5.0
393 53 -5.0
453 53 5.0
581 53 -1.0
583 53 -1.0
584 53 -1.0
585 53 -1.0
693 53 1.0
1115 53 1.0
1116 53 -1.0
0 54 -6.0
394 54 -6.0
454 54 6.0
586 54 -1.0
587 54 -1.0
588 54 -1.0
590 54 -1.0
694 54 1.0
1117 54 1.0
1118 54 -1.0
0 55 -10.0
395 55 -10.0
455 55 10.0
586 55 -1.0
588 55 -1.0
589 55 -1.0
591 55 -1.0
695 55 1.0
1119 55 1.0
1120 55 -1.0
0 56 -6.0
396 56 -6.0
456 56 6.0
587 56 -1.0
589 56 -1.0
590 56 -1.0
591 56 -1.0
696 56 1.0
1121 56 1.0
1122 56 -1.0
0 57 -7.0
397 57 -7.0
457 57 7.0
592 57 -1.0
593 57 -1.0
594 57 -1.0
596 57 -1.0
697 57 1.0
1123 57 1.0
1124 57 -1.0
0 58 -7.0
398 58 -7.0
458 58 7.0
592 58 -1.0
594 58 -1.0
595 58 -1.0
597 58 -1.0
698 58 1.0
1125 58 1.0
1126 58 -1.0
0 59 -4.0
399 59 -4.0
459 59 4.0
593 59 -1.0
595 59 -1.0
596 59 -1.0
597 59 -1.0
699 59 1.0
1127 59 1.0
1128 59 -1.0
0 60 -4.0
400 60 -4.0
460 60 4.0
598 60 -1.0
599 60 -1.0
600 60 -1.0
602 60 -1.0
700 60 1.0
1129 60 1.0
1130 60 -1.0
0 61 -3.0
401 61 -3.0
461 61 3.0
598 61 -1.0
600 61 -1.0
601 61 -1.0
603 61 -1.0
701 61 1.0
1131 61 1.0
1132 61 -1.0
0 62 -2.0
402 62 -2.0
462 62 2.0
599 62 -1.0
601 62 -1.0
602 62 -1.0
603 62 -1.0
702 62 1.0
1133 62 1.0
1134 62 -1.0
0 63 -5.0
403 63 -5.0
463 63 5.0
604 63 -1.0
605 63 -1.0
606 63 -1.0
608 63 -1.0
703 63 1.0
1135 63 1.0
1136 63 -1.0
0 64 -6.0
404 64 -6.0
464 64 6.0
604 64 -1.0
606 64 -1.0
607 64 -1.0
609 64 -1.0
704 64 1.0
1137 64 1.0
1138 64 -1.0
0 65 -7.0
405 65 -7.0
465 65 7.0
605 65 -1.0
607 65 -1.0
608 65 -1.0
609 65 -1.0
705 65 1.0
1139 65 1.0
1140 65 -1.0
0 66 -2.0
406 66 -2.0
466 66 2.0
610 66 -1.0
611 66 -1.0
612 66 -1.0
614 66 -1.0
706 66 1.0
1141 66 1.0
1142 66 -1.0
0 67 -5.0
407 67 -5.0
467 67 5.0
610 67 -1.0
612 67 -1.0
613 67 -1.0
615 67 -1.0
707 67 1.0
1143 67 1.0
1144 67 -1.0
0 68 -2.0
408 68 -2.0
468 68 2.0
611 68 -1.0
613 68 -1.0
614 68 -1.0
615 68 -1.0
708 68 1.0
1145 68 1.0
1146 68 -1.0
0 69 -4.0
409 69 -4.0
469 69 4.0
616 69 -1.0
617 69 -1.0
618 69 -1.0
620 69 -1.0
709 69 1.0
1147 69 1.0
1148 69 -1.0
0 70 -7.0
410 70 -7.0
470 70 7.0
616 70 -1.0
618 70 -1.0
619 70 -1.0
621 70 -1.0
710 70 1.0
1149 70 1.0
1150 70 -1.0
0 71 -4.0
411 71 -4.0
471 71 4.0
617 71 -1.0
619 71 -1.0
620 71 -1.0
621 71 -1.0
711 71 1.0
1151 71 1.0
1152 71 -1.0
0 72 -3.0
412 72 -3.0
472 72 3.0
622 72 -1.0
623 72 -1.0
624 72 -1.0
626 72 -1.0
712 72 1.0
1153 72 1.0
1154 72 -1.0
0 73 -9.0
413 73 -9.0
473 73 9.0
622 73 -1.0
624 73 -1.0
625 73 -1.0
627 73 -1.0
713 73 1.0
1155 73 1.0
1156 73 -1.0
0 74 -3.0
414 74 -3.0
474 74 3.0
623 74 -1.0
625 74 -1.0
626 74 -1.0
627 74 -1.0
714 74 1.0
1157 74 1.0
1158 74 -1.0
0 75 -7.0
415 75 -7.0
475 75 7.0
628 75 -1.0
629 75 -1.0
630 75 -1.0
632 75 -1.0
715 75 1.0
1159 75 1.0
1160 75 -1.0
0 76 -2.0
416 76 -2.0
476 76 2.0
628 76 -1.0
630 76 -1.0
631 76 -1.0
633 76 -1.0
716 76 1.0
1161 76 1.0
1162 76 -1.0
0 77 -9.0
417 77 -9.0
477 77 9.0
629 77 -1.0
631 77 -1.0
632 77 -1.0
633 77 -1.0
717 77 1.0
1163 77 1.0
1164 77 -1.0
0 78 -3.0
418 78 -3.0
478 78 3.0
634 78 -1.0
635 78 -1.0
636 78 -1.0
638 78 -1.0
718 78 1.0
1165 78 1.0
1166 78 -1.0
0 79 -1.0
419 79 -1.0
479 79 1.0
634 79 -1.0
636 79 -1.0
637 79 -1.0
639 79 -1.0
719 79 1.0
1167 79 1.0
1168 79 -1.0
0 80 -9.0
420 80 -9.0
480 80 9.0
635 80 -1.0
637 80 -1.0
638 80 -1.0
639 80 -1.0
720 80 1.0
1169 80 1.0
1170 80 -1.0
0 81 -2.0
421 81 -2.0
481 81 2.0
640 81 -1.0
641 81 -1.0
642 81 -1.0
644 81 -1.0
721 81 1.0
1171 81 1.0
1172 81 -1.0
0 82 -6.0
422 82 -6.0
482 82 6.0
640 82 -1.0
642 82 -1.0
643 82 -1.0
645 82 -1.0
722 82 1.0
1173 82 1.0
1174 82 -1.0
0 83 -3.0
423 83 -3.0
483 83 3.0
641 83 -1.0
643 83 -1.0
644 83 -1.0
645 83 -1.0
723 83 1.0
1175 83 1.0
1176 83 -1.0
0 84 -4.0
424 84 -4.0
484 84 4.0
646 84 -1.0
647 84 -1.0
648 84 -1.0
650 84 -1.0
724 84 1.0
1177 84 1.0
1178 84 -1.0
0 85 -8.0
425 85 -8.0
485 85 8.0
646 85 -1.0
648 85 -1.0
649 85 -1.0
651 85 -1.0
725 85 1.0
1179 85 1.0
1180 85 -1.0
0 86 -1.0
426 86 -1.0
486 86 1.0
647 86 -1.0
649 86 -1.0
650 86 -1.0
651 86 -1.0
726 86 1.0
1181 86 1.0
1182 86 -1.0
0 87 -2.0
427 87 -2.0
487 87 2.0
652 87 -1.0
653 87 -1.0
654 87 -1.0
656 87 -1.0
727 87 1.0
1183 87 1.0
1184 87 -1.0
0 88 -5.0
428 88 -5.0
488 88 5.0
652 88 -1.0
654 88 -1.0
655 88 -1.0
657 88 -1.0
728 88 1.0
1185 88 1.0
1186 88 -1.0
0 89 -2.0
429 89 -2.0
489 89 2.0
653 89 -1.0
655 89 -1.0
656 89 -1.0
657 89 -1.0
729 89 1.0
1187 89 1.0
1188 89 -1.0
0 90 -3.0
430 90 -3.0
490 90 3.0
658 90 -1.0
659 90 -1.0
660 90 -1.0
662 90 -1.0
730 90 1.0
1189 90 1.0
1190 90 -1.0
0 91 -4.0
431 91 -4.0
491 91 4.0
658 91 -1.0
660 91 -1.0
661 91 -1.0
663 91 -1.0
731 91 1.0
1191 91 1.0
1192 91 -1.0
0 92 -3.0
432 92 -3.0
492 92 3.0
659 92 -1.0
661 92 -1.0
662 92 -1.0
663 92 -1.0
732 92 1.0
1193 92 1.0
1194 92 -1.0
0 93 -5.0
433 93 -5.0
493 93 5.0
664 93 -1.0
665 93 -1.0
666 93 -1.0
668 93 -1.0
733 93 1.0
1195 93 1.0
1196 93 -1.0
0 94 -7.0
434 94 -7.0
494 94 7.0
664 94 -1.0
666 94 -1.0
667 94 -1.0
669 94 -1.0
734 94 1.0
1197 94 1.0
1198 94 -1.0
0 95 -6.0
435 95 -6.0
495 95 6.0
665 95 -1.0
667 95 -1.0
668 95 -1.0
669 95 -1.0
735 95 1.0
1199 95 1.0
1200 95 -1.0
0 96 -2.0
436 96 -2.0
496 96 2.0
670 96 -1.0
671 96 -1.0
672 96 -1.0
674 96 -1.0
736 96 1.0
1201 96 1.0
1202 96 -1.0
0 97 -8.0
437 97 -8.0
497 97 8.0
670 97 -1.0
672 97 -1.0
673 97 -1.0
675 97 -1.0
737 97 1.0
1203 97 1.0
1204 97 -1.0
0 98 -4.0
438 98 -4.0
498 98 4.0
671 98 -1.0
673 98 -1.0
674 98 -1.0
675 98 -1.0
738 98 1.0
1205 98 1.0
1206 98 -1.0
0 99 -1.0
439 99 -1.0
499 99 1.0
676 99 -1.0
677 99 -1.0
678 99 -1.0
680 99 -1.0
739 99 1.0
1207 99 1.0
1208 99 -1.0
0 100 -4.0
440 100 -4.0
500 100 4.0
676 100 -1.0
678 100 -1.0
679 100 -1.0
681 100 -1.0
740 100 1.0
1209 100 1.0
1210 100 -1.0
0 101 -1.0
441 101 -1.0
501 101 1.0
677 101 -1.0
679 101 -1.0
680 101 -1.0
681 101 -1.0
741 101 1.0
1211 101 1.0
1212 101 -1.0
0 102 -1.0
1 103 -1.0
31 103 1.0
43 103 -1.0
832 103 1.0
1 104 -1.0
49 104 1.0
61 104 -1.0
835 104 1.0
2 105 -1.0
35 105 1.0
44 105 -1.0
833 105 1.0
2 106 -1.0
53 106 1.0
62 106 -1.0
836 106 1.0
3 107 -1.0
39 107 1.0
45 107 -1.0
834 107 1.0
3 108 -1.0
57 108 1.0
63 108 -1.0
837 108 1.0
4 109 -1.0
34 109 -1.0
46 109 -1.0
838 109 1.0
4 110 -1.0
52 110 -1.0
64 110 -1.0
841 110 1.0
4 111 1.0
7 111 1.0
844 111 1.0
5 112 -1.0
38 112 -1.0
47 112 -1.0
839 112 1.0
5 113 -1.0
56 113 -1.0
65 113 -1.0
842 113 1.0
5 114 1.0
8 114 1.0
845 114 1.0
6 115 -1.0
42 115 -1.0
48 115 -1.0
840 115 1.0
6 116 -1.0
60 116 -1.0
66 116 -1.0
843 116 1.0
6 117 1.0
9 117 1.0
846 117 1.0
7 118 -1.0
10 118 1.0
850 118 1.0
8 119 -1.0
11 119 1.0
851 119 1.0
9 120 -1.0
12 120 1.0
852 120 1.0
10 121 -1.0
67 121 0.75
70 121 -0.75
73 121 -1.0
853 121 1.0
10 122 -1.0
79 122 1.0
91 122 -1.0
856 122 1.0
10 123 -1.0
97 123 1.0
100 123 -1.0
109 123 -1.0
859 123 1.0
11 124 -1.0
68 124 0.75
71 124 -0.75
74 124 -1.0
854 124 1.0
11 125 -1.0
83 125 1.0
92 125 -1.0
857 125 1.0
11 126 -1.0
98 126 1.0
101 126 -1.0
110 126 -1.0
860 126 1.0
12 127 -1.0
69 127 0.75
72 127 -0.75
75 127 -1.0
855 127 1.0
12 128 -1.0
87 128 1.0
93 128 -1.0
858 128 1.0
12 129 -1.0
99 129 1.0
102 129 -1.0
111 129 -1.0
861 129 1.0
13 130 1.0
67 130 -1.0
70 130 1.0
76 130 -1.0
868 130 1.0
13 131 -1.0
118 131 1.0
130 131 -1.0
877 131 1.0
13 132 -1.0
136 132 1.0
148 132 -1.0
880 132 1.0
14 133 1.0
68 133 -1.0
71 133 1.0
77 133 -1.0
869 133 1.0
14 134 -1.0
122 134 1.0
131 134 -1.0
878 134 1.0
14 135 -1.0
140 135 1.0
149 135 -1.0
881 135 1.0
15 136 1.0
69 136 -1.0
72 136 1.0
78 136 -1.0
870 136 1.0
15 137 -1.0
126 137 1.0
132 137 -1.0
879 137 1.0
15 138 -1.0
144 138 1.0
150 138 -1.0
882 138 1.0
16 139 1.0
97 139 -1.0
100 139 1.0
103 139 -1.0
106 139 1.0
115 139 -1.0
874 139 1.0
16 140 -1.0
172 140 0.9
175 140 -0.9
178 140 -1.0
883 140 1.0
16 141 -1.0
184 141 0.6
187 141 -0.6
190 141 -1.0
886 141 1.0
16 142 -1.0
196 142 1.0
208 142 -1.0
889 142 1.0
17 143 1.0
98 143 -1.0
101 143 1.0
104 143 -1.0
107 143 1.0
116 143 -1.0
875 143 1.0
17 144 -1.0
173 144 0.9
176 144 -0.9
179 144 -1.0
884 144 1.0
17 145 -1.0
185 145 0.6
188 145 -0.6
191 145 -1.0
887 145 1.0
17 146 -1.0
200 146 1.0
209 146 -1.0
890 146 1.0
18 147 1.0
99 147 -1.0
102 147 1.0
105 147 -1.0
108 147 1.0
117 147 -1.0
876 147 1.0
18 148 -1.0
174 148 0.9
177 148 -0.9
180 148 -1.0
885 148 1.0
18 149 -1.0
186 149 0.6
189 149 -0.6
192 149 -1.0
888 149 1.0
18 150 -1.0
204 150 1.0
210 150 -1.0
891 150 1.0
19 151 1.0
157 151 -1.0
169 151 -1.0
898 151 1.0
19 152 -1.0
253 152 1.0
265 152 -1.0
910 152 1.0
19 153 -1.0
271 153 1.0
295 153 -1.0
913 153 1.0
20 154 1.0
161 154 -1.0
170 154 -1.0
899 154 1.0
20 155 -1.0
257 155 1.0
266 155 -1.0
911 155 1.0
20 156 -1.0
275 156 1.0
296 156 -1.0
914 156 1.0
21 157 1.0
165 157 -1.0
171 157 -1.0
900 157 1.0
21 158 -1.0
261 158 1.0
267 158 -1.0
912 158 1.0
21 159 -1.0
279 159 1.0
297 159 -1.0
915 159 1.0
22 160 -1.0
172 160 -1.0
175 160 1.0
181 160 -1.0
901 160 1.0
22 161 1.0
283 161 1.0
298 161 -1.0
928 161 1.0
23 162 -1.0
173 162 -1.0
176 162 1.0
182 162 -1.0
902 162 1.0
23 163 1.0
287 163 1.0
299 163 -1.0
929 163 1.0
24 164 -1.0
174 164 -1.0
177 164 1.0
183 164 -1.0
903 164 1.0
24 165 1.0
291 165 1.0
300 165 -1.0
930 165 1.0
25 166 1.0
184 166 -1.0
187 166 1.0
193 166 -1.0
904 166 1.0
25 167 -1.0
304 167 1.0
307 167 -1.0
310 167 -1.0
931 167 1.0
25 168 -1.0
316 168 1.0
319 168 -1.0
322 168 -1.0
934 168 1.0
26 169 1.0
185 169 -1.0
188 169 1.0
194 169 -1.0
905 169 1.0
26 170 -1.0
305 170 1.0
308 170 -1.0
311 170 -1.0
932 170 1.0
26 171 -1.0
317 171 1.0
320 171 -1.0
323 171 -1.0
935 171 1.0
27 172 1.0
186 172 -1.0
189 172 1.0
195 172 -1.0
906 172 1.0
27 173 -1.0
306 173 1.0
309 173 -1.0
312 173 -1.0
933 173 1.0
27 174 -1.0
318 174 1.0
321 174 -1.0
324 174 -1.0
936 174 1.0
28 175 1.0
199 175 -1.0
211 175 -1.0
907 175 1.0
28 176 -1.0
328 176 1.0
340 176 -1.0
937 176 1.0
28 177 -1.0
346 177 1.0
358 177 -1.0
940 177 1.0
28 178 -1.0
364 178 1.0
376 178 -1.0
943 178 1.0
29 179 1.0
203 179 -1.0
212 179 -1.0
908 179 1.0
29 180 -1.0
332 180 1.0
341 180 -1.0
938 180 1.0
29 181 -1.0
350 181 1.0
359 181 -1.0
941 181 1.0
29 182 -1.0
368 182 1.0
377 182 -1.0
944 182 1.0
30 183 1.0
207 183 -1.0
213 183 -1.0
909 183 1.0
30 184 -1.0
336 184 1.0
342 184 -1.0
939 184 1.0
30 185 -1.0
354 185 1.0
360 185 -1.0
942 185 1.0
30 186 -1.0
372 186 1.0
378 186 -1.0
945 186 1.0
33 187 1.0
34 187 1.0
34 188 -1.0
43 188 40.0
46 188 3.71357206670431
502 188 -1.0
503 188 -1.0
682 188 -1.0
683 188 1.0
684 188 1.0
742 188 1.0
772 188 1.0
775 188 1.0
778 188 1.0
973 188 1.0
974 188 -1.0
37 189 1.0
38 189 1.0
38 190 -1.0
44 190 40.0
47 190 3.71357206670431
502 190 1.0
504 190 -1.0
683 190 -1.0
684 190 1.0
743 190 1.0
773 190 1.0
776 190 1.0
779 190 1.0
975 190 1.0
976 190 -1.0
41 191 1.0
42 191 1.0
42 192 -1.0
45 192 40.0
48 192 3.71357206670431
503 192 1.0
504 192 1.0
684 192 -1.0
744 192 1.0
774 192 1.0
777 192 1.0
780 192 1.0
977 192 1.0
978 192 -1.0
51 193 1.0
52 193 1.2
52 194 -1.0
61 194 40.0
64 194 4.45628648004517
505 194 -1.0
506 194 -1.0
685 194 -1.0
686 194 1.0
687 194 1.0
742 194 1.0
772 194 1.0
775 194 1.0
778 194 1.0
979 194 1.0
980 194 -1.0
55 195 1.0
56 195 1.2
56 196 -1.0
62 196 40.0
65 196 4.45628648004517
505 196 1.0
507 196 -1.0
686 196 -1.0
687 196 1.0
743 196 1.0
773 196 1.0
776 196 1.0
779 196 1.0
981 196 1.0
982 196 -1.0
59 197 1.0
60 197 1.2
60 198 -1.0
63 198 40.0
66 198 4.45628648004517
506 198 1.0
507 198 1.0
687 198 -1.0
744 198 1.0
774 198 1.0
777 198 1.0
780 198 1.0
983 198 1.0
984 198 -1.0
67 199 -1.0
70 199 -1.0
73 199 4.45628648004517
76 199 3.34221486003388
508 199 -1.0
509 199 -1.0
688 199 -1.0
689 199 1.0
690 199 1.0
745 199 -1.0
772 199 -1.0
781 199 1.0
784 199 1.0
985 199 1.0
986 199 -1.0
68 200 -1.0
71 200 -1.0
74 200 4.45628648004517
77 200 3.34221486003388
508 200 1.0
510 200 -1.0
689 200 -1.0
690 200 1.0
746 200 -1.0
773 200 -1.0
782 200 1.0
785 200 1.0
987 200 1.0
988 200 -1.0
69 201 -1.0
72 201 -1.0
75 201 4.45628648004517
78 201 3.34221486003388
509 201 1.0
510 201 1.0
690 201 -1.0
747 201 -1.0
774 201 -1.0
783 201 1.0
786 201 1.0
989 201 1.0
990 201 -1.0
81 202 1.0
82 202 1.5
82 203 -1.0
94 203 -1.0
154 203 1.0
166 203 -1.0
871 203 1.0
82 204 -1.0
91 204 4.45628648004517
94 204 2.54515263975353
511 204 -1.0
512 204 -1.0
691 204 -1.0
692 204 1.0
693 204 1.0
754 204 -1.0
775 204 -1.0
787 204 1.0
991 204 1.0
992 204 -1.0
85 205 1.0
86 205 1.5
86 206 -1.0
95 206 -1.0
158 206 1.0
167 206 -1.0
872 206 1.0
86 207 -1.0
92 207 4.45628648004517
95 207 2.54515263975353
511 207 1.0
513 207 -1.0
692 207 -1.0
693 207 1.0
755 207 -1.0
776 207 -1.0
788 207 1.0
993 207 1.0
994 207 -1.0
89 208 1.0
90 208 1.5
90 209 -1.0
96 209 -1.0
162 209 1.0
168 209 -1.0
873 209 1.0
90 210 -1.0
93 210 4.45628648004517
96 210 2.54515263975353
512 210 1.0
513 210 1.0
693 210 -1.0
756 210 -1.0
777 210 -1.0
789 210 1.0
995 210 1.0
996 210 -1.0
97 211 -1.0
100 211 -1.0
103 211 -1.0
106 211 -1.0
109 211 4.45628648004517
112 211 30.0
115 211 15.0
514 211 -1.0
515 211 -1.0
694 211 -1.0
695 211 1.0
696 211 1.0
760 211 -1.0
778 211 -1.0
790 211 1.0
793 211 1.0
796 211 1.0
997 211 1.0
998 211 -1.0
98 212 -1.0
101 212 -1.0
104 212 -1.0
107 212 -1.0
110 212 4.45628648004517
113 212 30.0
116 212 15.0
514 212 1.0
516 212 -1.0
695 212 -1.0
696 212 1.0
761 212 -1.0
779 212 -1.0
791 212 1.0
794 212 1.0
797 212 1.0
999 212 1.0
1000 212 -1.0
99 213 -1.0
102 213 -1.0
105 213 -1.0
108 213 -1.0
111 213 4.45628648004517
114 213 30.0
117 213 15.0
515 213 1.0
516 213 1.0
696 213 -1.0
762 213 -1.0
780 213 -1.0
792 213 1.0
795 213 1.0
798 213 1.0
1001 213 1.0
1002 213 -1.0
120 214 1.0
121 214 1.25
121 215 -1.0
133 215 -1.0
214 215 0.9
217 215 -0.9
226 215 -1.0
892 215 1.0
121 216 -1.0
130 216 3.34221486003388
133 216 1.83548069293539
517 216 -1.0
518 216 -1.0
697 216 -1.0
698 216 1.0
699 216 1.0
745 216 1.0
748 216 -1.0
781 216 -1.0
799 216 1.0
1003 216 1.0
1004 216 -1.0
124 217 1.0
125 217 1.25
125 218 -1.0
134 218 -1.0
215 218 0.9
218 218 -0.9
227 218 -1.0
893 218 1.0
125 219 -1.0
131 219 3.34221486003388
134 219 1.83548069293539
517 219 1.0
519 219 -1.0
698 219 -1.0
699 219 1.0
746 219 1.0
749 219 -1.0
782 219 -1.0
800 219 1.0
1005 219 1.0
1006 219 -1.0
128 220 1.0
129 220 1.25
129 221 -1.0
135 221 -1.0
216 221 0.9
219 221 -0.9
228 221 -1.0
894 221 1.0
129 222 -1.0
132 222 3.34221486003388
135 222 1.83548069293539
518 222 1.0
519 222 1.0
699 222 -1.0
747 222 1.0
750 222 -1.0
783 222 -1.0
801 222 1.0
1007 222 1.0
1008 222 -1.0
138 223 1.0
139 223 0.9
139 224 -1.0
151 224 -1.0
235 224 1.0
247 224 -1.0
895 224 1.0
139 225 -1.0
148 225 3.34221486003388
151 225 1.32154609891348
520 225 -1.0
521 225 -1.0
700 225 -1.0
701 225 1.0
702 225 1.0
745 225 1.0
751 225 -1.0
784 225 -1.0
802 225 1.0
1009 225 1.0
1010 225 -1.0
142 226 1.0
143 226 0.9
143 227 -1.0
152 227 -1.0
239 227 1.0
248 227 -1.0
896 227 1.0
143 228 -1.0
149 228 3.34221486003388
152 228 1.32154609891348
520 228 1.0
522 228 -1.0
701 228 -1.0
702 228 1.0
746 228 1.0
752 228 -1.0
785 228 -1.0
803 228 1.0
1011 228 1.0
1012 228 -1.0
146 229 1.0
147 229 0.9
147 230 -1.0
153 230 -1.0
243 230 1.0
249 230 -1.0
897 230 1.0
147 231 -1.0
150 231 3.34221486003388
153 231 1.32154609891348
521 231 1.0
522 231 1.0
702 231 -1.0
747 231 1.0
753 231 -1.0
786 231 -1.0
804 231 1.0
1013 231 1.0
1014 231 -1.0
156 232 1.0
157 232 1.0
157 233 -1.0
166 233 2.54515263975353
169 233 1.26558121681553
523 233 -1.0
524 233 -1.0
703 233 -1.0
704 233 1.0
705 233 1.0
754 233 1.0
757 233 -1.0
787 233 -1.0
805 233 1.0
808 233 1.0
1015 233 1.0
1016 233 -1.0
160 234 1.0
161 234 1.0
161 235 -1.0
167 235 2.54515263975353
170 235 1.26558121681553
523 235 1.0
525 235 -1.0
704 235 -1.0
705 235 1.0
755 235 1.0
758 235 -1.0
788 235 -1.0
806 235 1.0
809 235 1.0
1017 235 1.0
1018 235 -1.0
164 236 1.0
165 236 1.0
165 237 -1.0
168 237 2.54515263975353
171 237 1.26558121681553
524 237 1.0
525 237 1.0
705 237 -1.0
756 237 1.0
759 237 -1.0
789 237 -1.0
807 237 1.0
810 237 1.0
1019 237 1.0
1020 237 -1.0
172 238 -1.0
175 238 -1.0
178 238 15.0
181 238 13.5
526 238 -1.0
527 238 -1.0
706 238 -1.0
707 238 1.0
708 238 1.0
760 238 1.0
763 238 -1.0
790 238 -1.0
1021 238 1.0
1022 238 -1.0
173 239 -1.0
176 239 -1.0
179 239 15.0
182 239 13.5
526 239 1.0
528 239 -1.0
707 239 -1.0
708 239 1.0
761 239 1.0
764 239 -1.0
791 239 -1.0
1023 239 1.0
1024 239 -1.0
174 240 -1.0
177 240 -1.0
180 240 15.0
183 240 13.5
527 240 1.0
528 240 1.0
708 240 -1.0
762 240 1.0
765 240 -1.0
792 240 -1.0
1025 240 1.0
1026 240 -1.0
184 241 -1.0
187 241 -1.0
190 241 15.0
193 241 9.0
529 241 -1.0
530 241 -1.0
709 241 -1.0
710 241 1.0
711 241 1.0
760 241 1.0
766 241 -1.0
793 241 -1.0
811 241 1.0
814 241 1.0
1027 241 1.0
1028 241 -1.0
185 242 -1.0
188 242 -1.0
191 242 15.0
194 242 9.0
529 242 1.0
531 242 -1.0
710 242 -1.0
711 242 1.0
761 242 1.0
767 242 -1.0
794 242 -1.0
812 242 1.0
815 242 1.0
1029 242 1.0
1030 242 -1.0
186 243 -1.0
189 243 -1.0
192 243 15.0
195 243 9.0
530 243 1.0
531 243 1.0
711 243 -1.0
762 243 1.0
768 243 -1.0
795 243 -1.0
813 243 1.0
816 243 1.0
1031 243 1.0
1032 243 -1.0
198 244 1.0
199 244 1.1
199 245 -1.0
208 245 15.0
211 245 3.04984759446376
532 245 -1.0
533 245 -1.0
712 245 -1.0
713 245 1.0
714 245 1.0
760 245 1.0
769 245 -1.0
796 245 -1.0
817 245 1.0
820 245 1.0
823 245 1.0
1033 245 1.0
1034 245 -1.0
202 246 1.0
203 246 1.1
203 247 -1.0
209 247 15.0
212 247 3.04984759446376
532 247 1.0
534 247 -1.0
713 247 -1.0
714 247 1.0
761 247 1.0
770 247 -1.0
797 247 -1.0
818 247 1.0
821 247 1.0
824 247 1.0
1035 247 1.0
1036 247 -1.0
206 248 1.0
207 248 1.1
207 249 -1.0
210 249 15.0
213 249 3.04984759446376
533 249 1.0
534 249 1.0
714 249 -1.0
762 249 1.0
771 249 -1.0
798 249 -1.0
819 249 1.0
822 249 1.0
825 249 1.0
1037 249 1.0
1038 249 -1.0
214 250 -1.0
217 250 -1.0
220 250 -1.0
223 250 -1.0
226 250 1.83548069293539
229 250 20.0
232 250 20.0
535 250 -1.0
536 250 -1.0
715 250 -1.0
716 250 1.0
717 250 1.0
748 250 1.0
799 250 -1.0
1039 250 1.0
1040 250 -1.0
215 251 -1.0
218 251 -1.0
221 251 -1.0
224 251 -1.0
227 251 1.83548069293539
230 251 20.0
233 251 20.0
535 251 1.0
537 251 -1.0
716 251 -1.0
717 251 1.0
749 251 1.0
800 251 -1.0
1041 251 1.0
1042 251 -1.0
216 252 -1.0
219 252 -1.0
222 252 -1.0
225 252 -1.0
228 252 1.83548069293539
231 252 20.0
234 252 20.0
536 252 1.0
537 252 1.0
717 252 -1.0
750 252 1.0
801 252 -1.0
1043 252 1.0
1044 252 -1.0
237 253 1.0
238 253 1.0
238 254 -1.0
247 254 1.32154609891348
250 254 0.842233385663186
538 254 -1.0
539 254 -1.0
718 254 -1.0
719 254 1.0
720 254 1.0
751 254 1.0
802 254 -1.0
1045 254 1.0
1046 254 -1.0
241 255 1.0
242 255 1.0
242 256 -1.0
248 256 1.32154609891348
251 256 0.842233385663186
538 256 1.0
540 256 -1.0
719 256 -1.0
720 256 1.0
752 256 1.0
803 256 -1.0
1047 256 1.0
1048 256 -1.0
245 257 1.0
246 257 1.0
246 258 -1.0
249 258 1.32154609891348
252 258 0.842233385663186
539 258 1.0
540 258 1.0
720 258 -1.0
753 258 1.0
804 258 -1.0
1049 258 1.0
1050 258 -1.0
255 259 1.0
256 259 0.7
256 260 -1.0
265 260 1.26558121681553
268 260 0.572481933717686
541 260 -1.0
542 260 -1.0
721 260 -1.0
722 260 1.0
723 260 1.0
757 260 1.0
805 260 -1.0
1051 260 1.0
1052 260 -1.0
259 261 1.0
260 261 0.7
260 262 -1.0
266 262 1.26558121681553
269 262 0.572481933717686
541 262 1.0
543 262 -1.0
722 262 -1.0
723 262 1.0
758 262 1.0
806 262 -1.0
1053 262 1.0
1054 262 -1.0
263 263 1.0
264 263 0.7
264 264 -1.0
267 264 1.26558121681553
270 264 0.572481933717686
542 264 1.0
543 264 1.0
723 264 -1.0
759 264 1.0
807 264 -1.0
1055 264 1.0
1056 264 -1.0
273 265 1.0
274 265 0.65
274 266 -1.0
286 266 -1.0
295 266 1.26558121681553
298 266 33.5
301 266 2.30162356062425
544 266 -1.0
545 266 -1.0
724 266 -1.0
725 266 1.0
726 266 1.0
757 266 1.0
763 266 1.0
808 266 -1.0
1057 266 1.0
1058 266 -1.0
277 267 1.0
278 267 0.65
278 268 -1.0
290 268 -1.0
296 268 1.26558121681553
299 268 33.5
302 268 2.30162356062425
544 268 1.0
546 268 -1.0
725 268 -1.0
726 268 1.0
758 268 1.0
764 268 1.0
809 268 -1.0
1059 268 1.0
1060 268 -1.0
281 269 1.0
282 269 0.65
282 270 -1.0
294 270 -1.0
297 270 1.26558121681553
300 270 33.5
303 270 2.30162356062425
545 270 1.0
546 270 1.0
726 270 -1.0
759 270 1.0
765 270 1.0
810 270 -1.0
1061 270 1.0
1062 270 -1.0
285 271 1.0
286 271 0.65
289 272 1.0
290 272 0.65
293 273 1.0
294 273 0.65
304 274 -1.0
307 274 -1.0
310 274 9.0
313 274 9.0
547 274 -1.0
548 274 -1.0
727 274 -1.0
728 274 1.0
729 274 1.0
766 274 1.0
811 274 -1.0
1063 274 1.0
1064 274 -1.0
305 275 -1.0
308 275 -1.0
311 275 9.0
314 275 9.0
547 275 1.0
549 275 -1.0
728 275 -1.0
729 275 1.0
767 275 1.0
812 275 -1.0
1065 275 1.0
1066 275 -1.0
306 276 -1.0
309 276 -1.0
312 276 9.0
315 276 9.0
548 276 1.0
549 276 1.0
729 276 -1.0
768 276 1.0
813 276 -1.0
1067 276 1.0
1068 276 -1.0
316 277 -1.0
319 277 -1.0
322 277 9.0
325 277 9.0
550 277 -1.0
551 277 -1.0
730 277 -1.0
731 277 1.0
732 277 1.0
766 277 1.0
814 277 -1.0
1069 277 1.0
1070 277 -1.0
317 278 -1.0
320 278 -1.0
323 278 9.0
326 278 9.0
550 278 1.0
552 278 -1.0
731 278 -1.0
732 278 1.0
767 278 1.0
815 278 -1.0
1071 278 1.0
1072 278 -1.0
318 279 -1.0
321 279 -1.0
324 279 9.0
327 279 9.0
551 279 1.0
552 279 1.0
732 279 -1.0
768 279 1.0
816 279 -1.0
1073 279 1.0
1074 279 -1.0
330 280 1.0
331 280 0.75
331 281 -1.0
340 281 3.04984759446376
343 281 1.04900943706034
553 281 -1.0
554 281 -1.0
733 281 -1.0
734 281 1.0
735 281 1.0
769 281 1.0
817 281 -1.0
1075 281 1.0
1076 281 -1.0
334 282 1.0
335 282 0.75
335 283 -1.0
341 283 3.04984759446376
344 283 1.04900943706034
553 283 1.0
555 283 -1.0
734 283 -1.0
735 283 1.0
770 283 1.0
818 283 -1.0
1077 283 1.0
1078 283 -1.0
338 284 1.0
339 284 0.75
339 285 -1.0
342 285 3.04984759446376
345 285 1.04900943706034
554 285 1.0
555 285 1.0
735 285 -1.0
771 285 1.0
819 285 -1.0
1079 285 1.0
1080 285 -1.0
348 286 1.0
349 286 0.8
349 287 -1.0
358 287 3.04984759446376
361 287 1.11894339953103
556 287 -1.0
557 287 -1.0
736 287 -1.0
737 287 1.0
738 287 1.0
769 287 1.0
820 287 -1.0
1081 287 1.0
1082 287 -1.0
352 288 1.0
353 288 0.8
353 289 -1.0
359 289 3.04984759446376
362 289 1.11894339953103
556 289 1.0
558 289 -1.0
737 289 -1.0
738 289 1.0
770 289 1.0
821 289 -1.0
1083 289 1.0
1084 289 -1.0
356 290 1.0
357 290 0.8
357 291 -1.0
360 291 3.04984759446376
363 291 1.11894339953103
557 291 1.0
558 291 1.0
738 291 -1.0
771 291 1.0
822 291 -1.0
1085 291 1.0
1086 291 -1.0
366 292 1.0
367 292 0.85
367 293 -1.0
376 293 3.04984759446376
379 293 1.18887736200171
559 293 -1.0
560 293 -1.0
739 293 -1.0
740 293 1.0
741 293 1.0
769 293 1.0
823 293 -1.0
1087 293 1.0
1088 293 -1.0
370 294 1.0
371 294 0.85
371 295 -1.0
377 295 3.04984759446376
380 295 1.18887736200171
559 295 1.0
561 295 -1.0
740 295 -1.0
741 295 1.0
770 295 1.0
824 295 -1.0
1089 295 1.0
1090 295 -1.0
374 296 1.0
375 296 0.85
375 297 -1.0
378 297 3.04984759446376
381 297 1.18887736200171
560 297 1.0
561 297 1.0
741 297 -1.0
771 297 1.0
825 297 -1.0
1091 297 1.0
1092 297 -1.0
382 298 -1.0
442 298 1.0
383 299 -1.0
443 299 1.0
384 300 -1.0
444 300 1.0
385 301 -1.0
445 301 1.0
386 302 -1.0
446 302 1.0
387 303 -1.0
447 303 1.0
388 304 -1.0
448 304 1.0
389 305 -1.0
449 305 1.0
390 306 -1.0
450 306 1.0
391 307 -1.0
451 307 1.0
392 308 -1.0
452 308 1.0
393 309 -1.0
453 309 1.0
394 310 -1.0
454 310 1.0
395 311 -1.0
455 311 1.0
396 312 -1.0
456 312 1.0
397 313 -1.0
457 313 1.0
398 314 -1.0
458 314 1.0
399 315 -1.0
459 315 1.0
400 316 -1.0
460 316 1.0
401 317 -1.0
461 317 1.0
402 318 -1.0
462 318 1.0
403 319 -1.0
463 319 1.0
404 320 -1.0
464 320 1.0
405 321 -1.0
465 321 1.0
406 322 -1.0
466 322 1.0
407 323 -1.0
467 323 1.0
408 324 -1.0
468 324 1.0
409 325 -1.0
469 325 1.0
410 326 -1.0
470 326 1.0
411 327 -1.0
471 327 1.0
412 328 -1.0
472 328 1.0
413 329 -1.0
473 329 1.0
414 330 -1.0
474 330 1.0
415 331 -1.0
475 331 1.0
416 332 -1.0
476 332 1.0
417 333 -1.0
477 333 1.0
418 334 -1.0
478 334 1.0
419 335 -1.0
479 335 1.0
420 336 -1.0
480 336 1.0
421 337 -1.0
481 337 1.0
422 338 -1.0
482 338 1.0
423 339 -1.0
483 339 1.0
424 340 -1.0
484 340 1.0
425 341 -1.0
485 341 1.0
426 342 -1.0
486 342 1.0
427 343 -1.0
487 343 1.0
428 344 -1.0
488 344 1.0
429 345 -1.0
489 345 1.0
430 346 -1.0
490 346 1.0
431 347 -1.0
491 347 1.0
432 348 -1.0
492 348 1.0
433 349 -1.0
493 349 1.0
434 350 -1.0
494 350 1.0
435 351 -1.0
495 351 1.0
436 352 -1.0
496 352 1.0
437 353 -1.0
497 353 1.0
438 354 -1.0
498 354 1.0
439 355 -1.0
499 355 1.0
440 356 -1.0
500 356 1.0
441 357 -1.0
501 357 1.0

BCOORD
435
31 1.0
32 1.0
34 1.0
35 1.0
36 1.0
38 1.0
39 1.0
40 1.0
42 1.0
49 1.0
50 1.0
52 1.0
53 1.0
54 1.0
56 1.0
57 1.0
58 1.0
60 1.0
67 1.0
68 1.0
69 1.0
70 1.0
71 1.0
72 1.0
79 1.0
80 1.0
82 1.0
83 1.0
84 1.0
86 1.0
87 1.0
88 1.0
90 1.0
97 1.0
98 1.0
99 1.0
100 1.0
101 1.0
102 1.0
103 1.0
104 1.0
105 1.0
106 1.0
107 1.0
108 1.0
118 1.0
119 1.0
121 1.0
122 1.0
123 1.0
125 1.0
126 1.0
127 1.0
129 1.0
136 1.0
137 1.0
139 1.0
140 1.0
141 1.0
143 1.0
144 1.0
145 1.0
147 1.0
154 1.0
155 1.0
157 1.0
158 1.0
159 1.0
161 1.0
162 1.0
163 1.0
165 1.0
172 1.0
173 1.0
174 1.0
175 1.0
176 1.0
177 1.0
184 1.0
185 1.0
186 1.0
187 1.0
188 1.0
189 1.0
196 1.0
197 1.0
199 1.0
200 1.0
201 1.0
203 1.0
204 1.0
205 1.0
207 1.0
214 1.0
215 1.0
216 1.0
217 1.0
218 1.0
219 1.0
220 1.0
221 1.0
222 1.0
223 1.0
224 1.0
225 1.0
235 1.0
236 1.0
238 1.0
239 1.0
240 1.0
242 1.0
243 1.0
244 1.0
246 1.0
253 1.0
254 1.0
256 1.0
257 1.0
258 1.0
260 1.0
261 1.0
262 1.0
264 1.0
271 1.0
272 1.0
274 1.0
275 1.0
276 1.0
278 1.0
279 1.0
280 1.0
282 1.0
283 1.0
284 1.0
286 1.0
287 1.0
288 1.0
290 1.0
291 1.0
292 1.0
294 1.0
304 1.0
305 1.0
306 1.0
307 1.0
308 1.0
309 1.0
316 1.0
317 1.0
318 1.0
319 1.0
320 1.0
321 1.0
328 1.0
329 1.0
331 1.0
332 1.0
333 1.0
335 1.0
336 1.0
337 1.0
339 1.0
346 1.0
347 1.0
349 1.0
350 1.0
351 1.0
353 1.0
354 1.0
355 1.0
357 1.0
364 1.0
365 1.0
367 1.0
368 1.0
369 1.0
371 1.0
372 1.0
373 1.0
375 1.0
562 1.0
563 1.0
564 1.0
565 1.0
566 1.0
567 1.0
568 1.0
569 1.0
570 1.0
571 1.0
572 1.0
573 1.0
574 1.0
575 1.0
576 1.0
577 1.0
578 1.0
579 1.0
580 1.0
581 1.0
582 1.0
583 1.0
584 1.0
585 1.0
586 1.0
587 1.0
588 1.0
589 1.0
590 1.0
591 1.0
592 1.0
593 1.0
594 1.0
595 1.0
596 1.0
597 1.0
598 1.0
599 1.0
600 1.0
601 1.0
602 1.0
603 1.0
604 1.0
605 1.0
606 1.0
607 1.0
608 1.0
609 1.0
610 1.0
611 1.0
612 1.0
613 1.0
614 1.0
615 1.0
616 1.0
617 1.0
618 1.0
619 1.0
620 1.0
621 1.0
622 1.0
623 1.0
624 1.0
625 1.0
626 1.0
627 1.0
628 1.0
629 1.0
630 1.0
631 1.0
632 1.0
633 1.0
634 1.0
635 1.0
636 1.0
637 1.0
638 1.0
639 1.0
640 1.0
641 1.0
642 1.0
643 1.0
644 1.0
645 1.0
646 1.0
647 1.0
648 1.0
649 1.0
650 1.0
651 1.0
652 1.0
653 1.0
654 1.0
655 1.0
656 1.0
657 1.0
658 1.0
659 1.0
660 1.0
661 1.0
662 1.0
663 1.0
664 1.0
665 1.0
666 1.0
667 1.0
668 1.0
669 1.0
670 1.0
671 1.0
672 1.0
673 1.0
674 1.0
675 1.0
676 1.0
677 1.0
678 1.0
679 1.0
680 1.0
681 1.0
742 -1.0
743 -1.0
744 -1.0
827 40.0
829 40.0
831 40.0
863 30.0
865 30.0
867 30.0
917 20.0
919 20.0
921 20.0
923 20.0
925 20.0
927 20.0
974 1.0
976 1.0
978 1.0
980 1.0
982 1.0
984 1.0
986 1.0
988 1.0
990 1.0
992 1.0
994 1.0
996 1.0
998 1.0
1000 1.0
1002 1.0
1004 1.0
1006 1.0
1008 1.0
1010 1.0
1012 1.0
1014 1.0
1016 1.0
1018 1.0
1020 1.0
1022 1.0
1024 1.0
1026 1.0
1028 1.0
1030 1.0
1032 1.0
1034 1.0
1036 1.0
1038 1.0
1040 1.0
1042 1.0
1044 1.0
1046 1.0
1048 1.0
1050 1.0
1052 1.0
1054 1.0
1056 1.0
1058 1.0
1060 1.0
1062 1.0
1064 1.0
1066 1.0
1068 1.0
1070 1.0
1072 1.0
1074 1.0
1076 1.0
1078 1.0
1080 1.0
1082 1.0
1084 1.0
1086 1.0
1088 1.0
1090 1.0
1092 1.0
1094 1.0
1096 1.0
1098 1.0
1100 1.0
1102 1.0
1104 1.0
1106 1.0
1108 1.0
1110 1.0
1112 1.0
1114 1.0
1116 1.0
1118 1.0
1120 1.0
1122 1.0
1124 1.0
1126 1.0
1128 1.0
1130 1.0
1132 1.0
1134 1.0
1136 1.0
1138 1.0
1140 1.0
1142 1.0
1144 1.0
1146 1.0
1148 1.0
1150 1.0
1152 1.0
1154 1.0
1156 1.0
1158 1.0
1160 1.0
1162 1.0
1164 1.0
1166 1.0
1168 1.0
1170 1.0
1172 1.0
1174 1.0
1176 1.0
1178 1.0
1180 1.0
1182 1.0
1184 1.0
1186 1.0
1188 1.0
1190 1.0
1192 1.0
1194 1.0
1196 1.0
1198 1.0
1200 1.0
1202 1.0
1204 1.0
1206 1.0
1208 1.0
1210 1.0
1212 1.0
